experiment/data/lkh-res/Vrp-Set-B-n41/Vrp-Set-B-n41-lkh/0.lkh1.vrp
NAME : 0
COMMENT : CVRP Instance
TYPE : CVRP
DIMENSION : 41
EDGE_WEIGHT_TYPE : EUC_2D
CAPACITY : 100
NODE_COORD_SECTION
1	3700	3500
2	6100	7800
3	1800	3300
4	1000	700
5	4800	2600
6	9600	5800
7	1600	9700
8	10200	6700
9	9700	6700
10	2000	1700
11	11000	7700
12	2600	10100
13	10200	7400
14	9800	6400
15	7100	8200
16	10100	6000
17	10400	6900
18	7000	8500
19	1700	900
20	5600	3400
21	10500	6900
22	2000	800
23	10300	6300
24	10500	7600
25	2500	3500
26	2800	4300
27	5800	3600
28	5600	3200
29	6500	8700
30	7000	8000
31	10000	6500
32	10200	6100
33	9900	7300
34	2400	10300
35	2600	10700
36	2100	3900
37	9900	7100
38	2000	1600
39	5600	3000
40	5100	3100
41	10600	7000
DEMAND_SECTION
1	0
2	6
3	11
4	14
5	7
6	12
7	16
8	6
9	18
10	7
11	20
12	7
13	23
14	16
15	10
16	9
17	18
18	8
19	15
20	9
21	23
22	7
23	15
24	14
25	21
26	25
27	14
28	11
29	19
30	12
31	8
32	25
33	17
34	22
35	11
36	16
37	16
38	8
39	23
40	15
41	13
DEPOT_SECTION
1
-1
EOF
