experiment/data/lkh-res/Vrp-Set-B-n41/Vrp-Set-B-n41-lkh/0.lkh1.tour
NAME : 0.83366.tour
COMMENT : Length = 83366
COMMENT : Found by LKH-3 [Keld Helsgaun] Tue Apr  9 00:54:16 2024
TYPE : TOUR
DIMENSION : 46
TOUR_SECTION
1
6
16
32
23
14
9
44
8
21
41
11
24
13
45
10
38
22
19
4
3
36
25
46
2
30
15
18
33
37
17
31
42
5
39
28
27
20
40
43
29
35
34
12
7
26
-1
EOF
